WARNING: for repeatability, setting FPU to use double precision
============================[ Problem Statistics ]=============================
|                                                                             |
|  Number of variables:        177404                                         |
|  Number of clauses:         1055410                                         |
|  Parse time:                   0.29 s                                       |
|                                                                             |
c ============================[ Search Statistics ]==============================
c | Conflicts |          ORIGINAL         |          LEARNT          | Progress |
c |           |    Vars  Clauses Literals |    Limit  Clauses Lit/Cl |          |
c ===============================================================================
c Switched to VSIDS.
c Switched to LRB.
c Switched to VSIDS.
c Switched to LRB.
c Switched to VSIDS.
c Switched to LRB.
c Switched to VSIDS.
c Switched to LRB.
c Switched to VSIDS.
c Switched to LRB.
c Switched to VSIDS.
c Switched to LRB.
c Switched to VSIDS.
c Switched to LRB.
c Switched to VSIDS.
c Switched to LRB.
c Switched to VSIDS.
c Switched to LRB.
c Switched to VSIDS.
c Switched to LRB.
c Switched to VSIDS.
c Switched to LRB.
c ===============================================================================
restarts                  : 13265
conflicts                 : 2927259        (2686 /sec)
decisions                 : 409577113      (0.00 % random) (375790 /sec)
propagations              : 2295913055     (2106515 /sec)
conflict literals         : 56876260       (20.82 % deleted)

conflicts w/ DIP found    : 1772000        (60.53 % of conflicts)
conflicts w/ dangerous DIP: 0              (0.00 % of conflicts)
conflicts w/ DIP-learning : 21             (0.00 % of conflicts)
decisions on ext vars     : 357            (0.00 % of decisions)
total ext vars            : 15          
tried delete ext vars     : 0           
deleted ext vars          : 0           
max ext vars              : 15          

Memory used               : 472.00 MB
CPU time                  : 1089.91 s
DIP computation time      : 17.9085 s (1.64 % of total time)
ER_sel time               : 2.72381 s
ER_add time               : 0.000368 s
ER_delC time              : 0 s
ER_delV time              : 0 s
ER_sub time               : 4.20699 s
ER_stat time              : 0 s

SATISFIABLE
